
  32    1
  10

   0   0  13 2 3 4 6 7 8 10 11 12 13 15 16 17 
   2   1   4 30 29 18 5 
   1   7   5 31 28 27 19 9 
   5   4   6 29 22 21 20 19 14 
   1   8   6 28 26 21 20 19 14 
   8   3   7 28 27 26 25 23 19 18 
   2   4   6 30 29 26 25 19 18 
   9   8   5 28 27 25 22 19 
   7   9   5 29 26 25 20 18 
   5   6   5 29 26 25 19 18 
   6   5   5 27 25 20 19 18 
   9   6   3 28 25 18 
   7   4   3 25 19 18 
   1   9   3 27 25 24 
   5   8   2 30 18 
   3   3   2 30 18 
   4   4   1 18 
   3   5   1 24 
   4   5   1 24 
   3   5   1 24 
   7   5   1 27 
  10   6   1 26 
   2   6   1 24 
   6   5   1 32
   3   7   1 32
   1  10   1 32
   1   6   1 32
   4  10   1 32
   5   8   1 32
   6   6   1 32
   2   7   1 32
   0   0   0 
